p cnf 24 58
a 11 14 0
e 1 2 3 4 5 6 7 8 9 10 12 13 15 16 17 18 19 20 21 22 23 24 0
1 2 -3 0
-1 -2 -3 0
1 -2 3 0
-1 2 3 0
-5 -4 0
-5 4 0
-3 -5 -6 0
3 5 -6 0
-3 5 6 0
3 -5 6 0
7 -2 0
7 4 0
2 -4 -7 0
8 4 -9 0
-8 -4 -9 0
8 -4 9 0
-8 4 9 0
11 9 0
11 10 0
-9 -10 -11 0
10 8 -12 0
-10 -8 -12 0
10 -8 12 0
-10 8 12 0
13 11 0
13 -12 0
-11 12 -13 0
-14 -7 0
-14 -13 0
7 13 14 0
16 -15 0
16 -9 0
15 9 -16 0
-17 14 0
-17 -16 0
-14 16 17 0
20 -18 0
20 19 0
18 -19 -20 0
-21 18 0
-21 -19 0
-18 19 21 0
-20 21 -22 0
20 -21 -22 0
-20 -21 22 0
20 21 22 0
23 -17 0
23 22 0
17 -22 -23 0
24 6 0
24 -23 0
-6 23 -24 0
15 -12 21 -13 -1 -16 0
-17 -10 -19 0
8 16 -4 6 7 0
21 -15 -11 23 0
-23 6 18 -11 -2 0
24 0
